time,strain_xx,stress_xx,time_step_limit
0,0,0,0
0.1,0.01,100000000,1.7976931348623e+308
0.3,0.01,100000000,1.7976931348623e+308
0.7,0.01,100000000,1.7976931348623e+308
1.1,0.01,100000000,1.7976931348623e+308
